Grafeno_2atomos
1.00
    24.68172073     0.00000000     0.00000000
    12.34087033     21.37499141     0.00000000
    0.00000000     0.00000000     25.00000000
C H N Cu 
206 18 4 1 
Selective Dynamics
cartesian
 1.23407402  0.71249258  0.00000000 F F F
 2.46816121  2.84999168  0.00000000 F F F
 3.70224799  4.98749101  0.00000000 F F F
 4.93633522  7.12498971  0.00000000 F F F
 6.17042209  9.26248936  0.00000000 F F F
 7.40450914  11.39998837  0.00000000 F F F
 8.63859656  13.53748802  0.00000000 F F F
 9.87268324  15.67498640  0.00000000 F F F
 11.10677020  17.81248605  0.00000000 F F F
 12.34085725  19.94998315  0.00000000 F F F
 3.70224604  0.71249258  0.00000000 F F F
 4.93633341  2.84999168  0.00000000 F F F
 6.17042019  4.98749101  0.00000000 F F F
 7.40450733  7.12498971  0.00000000 F F F
 8.63859466  9.26248936  0.00000000 F F F
 9.87268162  11.39998837  0.00000000 F F F
 11.10676858  13.53748802  0.00000000 F F F
 12.34085517  15.67498640  0.00000000 F F F
 13.57494213  17.81248605  0.00000000 F F F
 14.80902835  19.94998315  0.00000000 F F F
 6.17041833  0.71249258  0.00000000 F F F
 7.40450534  2.84999168  0.00000000 F F F
 8.63859248  4.98749101  0.00000000 F F F
 9.87267999  7.12498971  0.00000000 F F F
 11.10676658  9.26248936  0.00000000 F F F
 12.34085391  11.39998837  0.00000000 F F F
 13.57494087  13.53748802  0.00000000 F F F
 14.80902746  15.67498640  0.00000000 F F F
 16.04311516  17.81248605  0.00000000 F F F
 17.27720028  19.94998315  0.00000000 F F F
 8.63858989  0.71249258  0.00000000 F F F
 9.87267690  2.84999168  0.00000000 F F F
 11.10676404  4.98749101  0.00000000 F F F
 12.34085081  7.12498971  0.00000000 F F F
 13.57493814  9.26248936  0.00000000 F F F
 14.80902510  11.39998837  0.00000000 F F F
 16.04311169  13.53748802  0.00000000 F F F
 17.27719828  15.67498640  0.00000000 F F F
 18.51128561  17.81248605  0.00000000 F F F
 19.74537220  19.94998315  0.00000000 F F F
 11.10676255  0.71249258  0.00000000 F F F
 12.34085029  2.84999168  0.00000000 F F F
 13.57493670  4.98749101  0.00000000 F F F
 14.80902421  7.12498971  0.00000000 F F F
 16.04311007  9.26248936  0.00000000 F F F
 17.27719703  11.39998837  0.00000000 F F F
 18.51128583  13.53748802  0.00000000 F F F
 19.74537095  15.67498640  0.00000000 F F F
 20.97945974  17.81248605  0.00000000 F F F
 22.21354486  19.94998315  0.00000000 F F F
 13.57493448  0.71249258  0.00000000 F F F
 14.80902148  2.84999168  0.00000000 F F F
 16.04310863  4.98749101  0.00000000 F F F
 17.27719540  7.12498971  0.00000000 F F F
 18.51128126  9.26248936  0.00000000 F F F
 19.74536969  11.39998837  0.00000000 F F F
 20.97945849  13.53748802  0.00000000 F F F
 22.21354214  15.67498640  0.00000000 F F F
 23.44763093  17.81248605  0.00000000 F F F
 24.68171679  19.94998315  0.00000000 F F F
 16.04310861  0.71249258  0.00000000 F F F
 17.27719562  2.84999168  0.00000000 F F F
 18.51128129  4.98749101  0.00000000 F F F
 19.74536954  7.12498971  0.00000000 F F F
 20.97945539  9.26248936  0.00000000 F F F
 22.21354235  11.39998837  0.00000000 F F F
 23.44762968  13.53748802  0.00000000 F F F
 24.68171627  15.67498640  0.00000000 F F F
 25.91580360  17.81248605  0.00000000 F F F
 27.14989092  19.94998315  0.00000000 F F F
 18.51127833  0.71249258  0.00000000 F F F
 19.74536534  2.84999168  0.00000000 F F F
 20.97945248  4.98749101  0.00000000 F F F
 22.21353926  7.12498971  0.00000000 F F F
 23.44762658  9.26248936  0.00000000 F F F
 24.68171354  11.39998837  0.00000000 F F F
 25.91579940  13.53748802  0.00000000 F F F
 27.14988746  15.67498640  0.00000000 F F F
 28.38397332  17.81248605  0.00000000 F F F
 29.61806064  19.94998315  0.00000000 F F F
 20.97944952  0.71249258  0.00000000 F F F
 22.21353800  2.84999168  0.00000000 F F F
 23.44762367  4.98749101  0.00000000 F F F
 24.68171192  7.12498971  0.00000000 F F F
 25.91580072  9.26248936  0.00000000 F F F
 27.14988767  11.39998837  0.00000000 F F F
 28.38397353  13.53748802  0.00000000 F F F
 29.61806012  15.67498640  0.00000000 F F F
 30.85214745  17.81248605  0.00000000 F F F
 32.08623478  19.94998315  0.00000000 F F F
 23.44762218  0.71249258  0.00000000 F F F
 24.68170919  2.84999168  0.00000000 F F F
 25.91579633  4.98749101  0.00000000 F F F
 27.14988311  7.12498971  0.00000000 F F F
 28.38397043  9.26248936  0.00000000 F F F
 29.61805739  11.39998837  0.00000000 F F F
 30.85214472  13.53748802  0.00000000 F F F
 32.08623131  15.67498640  0.00000000 F F F
 33.32032011  17.81248605  0.00000000 F F F
 34.55440450  19.94998315  0.00000000 F F F
 2.46818500  1.42500651  0.00000000 F F F
 3.70227187  3.56250568  0.00000000 F F F
 4.93635938  5.70000502  0.00000000 F F F
 6.17044597  7.83750403  0.00000000 F F F
 7.40453275  9.97500304  0.00000000 F F F
 8.63862026  12.11250269  0.00000000 F F F
 9.87270740  14.25000107  0.00000000 F F F
 11.10679436  16.38750072  0.00000000 F F F
 12.34088114  18.52499910  0.00000000 F F F
 13.57496846  20.66249875  0.00000000 F F F
 4.93635711  1.42500651  0.00000000 F F F
 6.17044417  3.56250568  0.00000000 F F F
 7.40453131  5.70000502  0.00000000 F F F
 8.63861864  7.83750403  0.00000000 F F F
 9.87270523  9.97500304  0.00000000 F F F
 11.10679219  12.11250269  0.00000000 F F F
 12.34087951  14.25000107  0.00000000 F F F
 13.57496647  16.38750072  0.00000000 F F F
 14.80905306  18.52499910  0.00000000 F F F
 16.04314039  20.66249875  0.00000000 F F F
 7.40452941  1.42500651  0.00000000 F F F
 8.63861646  3.56250568  0.00000000 F F F
 9.87270360  5.70000502  0.00000000 F F F
 11.10679056  7.83750403  0.00000000 F F F
 12.34087752  9.97500304  0.00000000 F F F
 13.57496411  12.11250269  0.00000000 F F F
 14.80905144  14.25000107  0.00000000 F F F
 16.04313877  16.38750072  0.00000000 F F F
 17.27722536  18.52499910  0.00000000 F F F
 18.51131269  20.66249875  0.00000000 F F F
 9.87270133  1.42500651  0.00000000 F F F
 11.10678838  3.56250568  0.00000000 F F F
 12.34087553  5.70000502  0.00000000 F F F
 13.57496249  7.83750403  0.00000000 F F F
 14.80904945  9.97500304  0.00000000 F F F
 16.04313604  12.11250269  0.00000000 F F F
 17.27722337  14.25000107  0.00000000 F F F
 18.51131069  16.38750072  0.00000000 F F F
 19.74539728  18.52499910  0.00000000 F F F
 20.97948461  20.66249875  0.00000000 F F F
 12.34087400  1.42500651  0.00000000 F F F
 13.57496105  3.56250568  0.00000000 F F F
 14.80904745  5.70000502  0.00000000 F F F
 16.04313441  7.83750403  0.00000000 F F F
 17.27722137  9.97500304  0.00000000 F F F
 18.51130870  12.11250269  0.00000000 F F F
 19.74539603  14.25000107  0.00000000 F F F
 20.97948262  16.38750072  0.00000000 F F F
 22.21356921  18.52499910  0.00000000 F F F
 23.44765654  20.66249875  0.00000000 F F F
 14.80904592  1.42500651  0.00000000 F F F
 16.04313297  3.56250568  0.00000000 F F F
 17.27722012  5.70000502  0.00000000 F F F
 18.51130708  7.83750403  0.00000000 F F F
 19.74539404  9.97500304  0.00000000 F F F
 20.97947989  12.11250269  0.00000000 F F F
 22.21356795  14.25000107  0.00000000 F F F
 23.44765528  16.38750072  0.00000000 F F F
 24.68174187  18.52499910  0.00000000 F F F
 25.91582920  20.66249875  0.00000000 F F F
 17.27721858  1.42500651  0.00000000 F F F
 18.51130416  3.56250568  0.00000000 F F F
 19.74539131  5.70000502  0.00000000 F F F
 20.97947827  7.83750403  0.00000000 F F F
 22.21356522  9.97500304  0.00000000 F F F
 23.44765255  12.11250269  0.00000000 F F F
 24.68173914  14.25000107  0.00000000 F F F
 25.91582647  16.38750072  0.00000000 F F F
 27.14991306  18.52499910  0.00000000 F F F
 28.38400039  20.66249875  0.00000000 F F F
 19.74538977  1.42500651  0.00000000 F F F
 20.97947682  3.56250568  0.00000000 F F F
 22.21356397  5.70000502  0.00000000 F F F
 23.44765093  7.83750403  0.00000000 F F F
 24.68173789  9.97500304  0.00000000 F F F
 25.91582521  12.11250269  0.00000000 F F F
 27.14991181  14.25000107  0.00000000 F F F
 28.38399913  16.38750072  0.00000000 F F F
 29.61808573  18.52499910  0.00000000 F F F
 30.85217305  20.66249875  0.00000000 F F F
 22.21355949  1.42500651  0.00000000 F F F
 23.44764655  3.56250568  0.00000000 F F F
 24.68173663  5.70000502  0.00000000 F F F
 25.91582359  7.83750403  0.00000000 F F F
 27.14991055  9.97500304  0.00000000 F F F
 28.38399641  12.11250269  0.00000000 F F F
 29.61808153  14.25000107  0.00000000 F F F
 30.85217032  16.38750072  0.00000000 F F F
 32.08625691  18.52499910  0.00000000 F F F
 33.32034277  20.66249875  0.00000000 F F F
 24.68173363  1.42500651  0.00000000 F F F
 25.91582068  3.56250568  0.00000000 F F F
 27.14990782  5.70000502  0.00000000 F F F
 28.38399478  7.83750403  0.00000000 F F F
 29.61808174  9.97500304  0.00000000 F F F
 30.85216907  12.11250269  0.00000000 F F F
 32.08625419  14.25000107  0.00000000 F F F
 33.32034299  16.38750072  0.00000000 F F F
 34.55442811  18.52499910  0.00000000 F F F
 35.78851690  20.66249875  0.00000000 F F F
 16.90333375  12.92179050  3.89494850 T T T
 18.31505200  13.50273925  3.90537075 T T T
 15.58495450  11.10028500  2.85344800 T T T
 20.62957475  12.70298725  3.40571000 T T T
 15.89696175  9.92924875  3.78665800 T T T
 21.25054400  11.42421400  2.84906975 T T T
 16.15616600  13.74231600  3.89645450 T T T
 16.74553975  12.33941175  4.81717825 T T T
 18.49124950  14.03376025  2.95483950 T T T
 18.40418650  14.25117275  4.71752150 T T T
 16.65685400  12.56734000  1.88108650 T T T
 19.43087975  12.15067075  4.99269075 T T T
 15.37623050  10.71443775  1.84157800 T T T
 14.66662250  11.61191025  3.21091050 T T T
 21.33292475  13.17883300  4.11820000 T T T
 20.47803825  13.41581100  2.57792950 T T T
 15.06000800  9.20859850  3.75484025 T T T
 15.98933775  10.27636400  4.82777475 T T T
 21.44325750  10.70955125  3.66512925 T T T
 22.21735500  11.65932650  2.36675400 T T T
 17.54648700  8.72823400  4.20002750 T T T
 17.05311650  8.63877475  2.63387525 T T T
 20.63079300  9.82406425  1.67212800 T T T
 20.28910150  11.29262825  1.01118550 T T T
 16.73176475  12.01562600  2.74445075 T T T
 19.31370725  12.42397075  4.01068625 T T T
 17.18896250  9.29529775  3.41666275 T T T
 20.30379375  10.77388750  1.90265175 T T T
 18.51133400  10.68750075  2.79999625 T T T
