Points = G M K G , Index = 0 40 69 129 , Hexagonal
130
Reciprocal lattice
0.000000000000000    0.000000000000000    0.000000000000000    1.0000
0.012500000000000    0.000000000000000    0.000000000000000    1.0000
0.025000000000000    0.000000000000000    0.000000000000000    1.0000
0.037500000000000    0.000000000000000    0.000000000000000    1.0000
0.050000000000000    0.000000000000000    0.000000000000000    1.0000
0.062500000000000    0.000000000000000    0.000000000000000    1.0000
0.075000000000000    0.000000000000000    0.000000000000000    1.0000
0.087500000000000    0.000000000000000    0.000000000000000    1.0000
0.100000000000000    0.000000000000000    0.000000000000000    1.0000
0.112500000000000    0.000000000000000    0.000000000000000    1.0000
0.125000000000000    0.000000000000000    0.000000000000000    1.0000
0.137500000000000    0.000000000000000    0.000000000000000    1.0000
0.150000000000000    0.000000000000000    0.000000000000000    1.0000
0.162500000000000    0.000000000000000    0.000000000000000    1.0000
0.175000000000000    0.000000000000000    0.000000000000000    1.0000
0.187500000000000    0.000000000000000    0.000000000000000    1.0000
0.200000000000000    0.000000000000000    0.000000000000000    1.0000
0.212500000000000    0.000000000000000    0.000000000000000    1.0000
0.225000000000000    0.000000000000000    0.000000000000000    1.0000
0.237500000000000    0.000000000000000    0.000000000000000    1.0000
0.250000000000000    0.000000000000000    0.000000000000000    1.0000
0.262500000000000    0.000000000000000    0.000000000000000    1.0000
0.275000000000000    0.000000000000000    0.000000000000000    1.0000
0.287500000000000    0.000000000000000    0.000000000000000    1.0000
0.300000000000000    0.000000000000000    0.000000000000000    1.0000
0.312500000000000    0.000000000000000    0.000000000000000    1.0000
0.325000000000000    0.000000000000000    0.000000000000000    1.0000
0.337500000000000    0.000000000000000    0.000000000000000    1.0000
0.350000000000000    0.000000000000000    0.000000000000000    1.0000
0.362500000000000    0.000000000000000    0.000000000000000    1.0000
0.375000000000000    0.000000000000000    0.000000000000000    1.0000
0.387500000000000    0.000000000000000    0.000000000000000    1.0000
0.400000000000000    0.000000000000000    0.000000000000000    1.0000
0.412500000000000    0.000000000000000    0.000000000000000    1.0000
0.425000000000000    0.000000000000000    0.000000000000000    1.0000
0.437500000000000    0.000000000000000    0.000000000000000    1.0000
0.450000000000000    0.000000000000000    0.000000000000000    1.0000
0.462500000000000    0.000000000000000    0.000000000000000    1.0000
0.475000000000000    0.000000000000000    0.000000000000000    1.0000
0.487500000000000    0.000000000000000    0.000000000000000    1.0000
0.500000000000000    0.000000000000000    0.000000000000000    1.0000
0.505758620689655    0.011482758620690    0.000000000000000    1.0000
0.511517241379310    0.022965517241379    0.000000000000000    1.0000
0.517275862068965    0.034448275862069    0.000000000000000    1.0000
0.523034482758621    0.045931034482759    0.000000000000000    1.0000
0.528793103448276    0.057413793103448    0.000000000000000    1.0000
0.534551724137931    0.068896551724138    0.000000000000000    1.0000
0.540310344827586    0.080379310344828    0.000000000000000    1.0000
0.546068965517241    0.091862068965517    0.000000000000000    1.0000
0.551827586206897    0.103344827586207    0.000000000000000    1.0000
0.557586206896552    0.114827586206897    0.000000000000000    1.0000
0.563344827586207    0.126310344827586    0.000000000000000    1.0000
0.569103448275862    0.137793103448276    0.000000000000000    1.0000
0.574862068965517    0.149275862068966    0.000000000000000    1.0000
0.580620689655172    0.160758620689655    0.000000000000000    1.0000
0.586379310344828    0.172241379310345    0.000000000000000    1.0000
0.592137931034483    0.183724137931034    0.000000000000000    1.0000
0.597896551724138    0.195206896551724    0.000000000000000    1.0000
0.603655172413793    0.206689655172414    0.000000000000000    1.0000
0.609413793103448    0.218172413793103    0.000000000000000    1.0000
0.615172413793104    0.229655172413793    0.000000000000000    1.0000
0.620931034482759    0.241137931034483    0.000000000000000    1.0000
0.626689655172414    0.252620689655172    0.000000000000000    1.0000
0.632448275862069    0.264103448275862    0.000000000000000    1.0000
0.638206896551724    0.275586206896552    0.000000000000000    1.0000
0.643965517241379    0.287068965517241    0.000000000000000    1.0000
0.649724137931035    0.298551724137931    0.000000000000000    1.0000
0.655482758620690    0.310034482758621    0.000000000000000    1.0000
0.661241379310345    0.321517241379310    0.000000000000000    1.0000
0.667000000000000    0.333000000000000    0.000000000000000    1.0000
0.655883333333333    0.327450000000000    0.000000000000000    1.0000
0.644766666666667    0.321900000000000    0.000000000000000    1.0000
0.633650000000000    0.316350000000000    0.000000000000000    1.0000
0.622533333333333    0.310800000000000    0.000000000000000    1.0000
0.611416666666667    0.305250000000000    0.000000000000000    1.0000
0.600300000000000    0.299700000000000    0.000000000000000    1.0000
0.589183333333333    0.294150000000000    0.000000000000000    1.0000
0.578066666666667    0.288600000000000    0.000000000000000    1.0000
0.566950000000000    0.283050000000000    0.000000000000000    1.0000
0.555833333333333    0.277500000000000    0.000000000000000    1.0000
0.544716666666667    0.271950000000000    0.000000000000000    1.0000
0.533600000000000    0.266400000000000    0.000000000000000    1.0000
0.522483333333333    0.260850000000000    0.000000000000000    1.0000
0.511366666666667    0.255300000000000    0.000000000000000    1.0000
0.500250000000000    0.249750000000000    0.000000000000000    1.0000
0.489133333333333    0.244200000000000    0.000000000000000    1.0000
0.478016666666667    0.238650000000000    0.000000000000000    1.0000
0.466900000000000    0.233100000000000    0.000000000000000    1.0000
0.455783333333333    0.227550000000000    0.000000000000000    1.0000
0.444666666666667    0.222000000000000    0.000000000000000    1.0000
0.433550000000000    0.216450000000000    0.000000000000000    1.0000
0.422433333333333    0.210900000000000    0.000000000000000    1.0000
0.411316666666667    0.205350000000000    0.000000000000000    1.0000
0.400200000000000    0.199800000000000    0.000000000000000    1.0000
0.389083333333333    0.194250000000000    0.000000000000000    1.0000
0.377966666666667    0.188700000000000    0.000000000000000    1.0000
0.366850000000000    0.183150000000000    0.000000000000000    1.0000
0.355733333333333    0.177600000000000    0.000000000000000    1.0000
0.344616666666667    0.172050000000000    0.000000000000000    1.0000
0.333500000000000    0.166500000000000    0.000000000000000    1.0000
0.322383333333333    0.160950000000000    0.000000000000000    1.0000
0.311266666666667    0.155400000000000    0.000000000000000    1.0000
0.300150000000000    0.149850000000000    0.000000000000000    1.0000
0.289033333333333    0.144300000000000    0.000000000000000    1.0000
0.277916666666667    0.138750000000000    0.000000000000000    1.0000
0.266800000000000    0.133200000000000    0.000000000000000    1.0000
0.255683333333333    0.127650000000000    0.000000000000000    1.0000
0.244566666666667    0.122100000000000    0.000000000000000    1.0000
0.233450000000000    0.116550000000000    0.000000000000000    1.0000
0.222333333333333    0.111000000000000    0.000000000000000    1.0000
0.211216666666667    0.105450000000000    0.000000000000000    1.0000
0.200100000000000    0.099900000000000    0.000000000000000    1.0000
0.188983333333333    0.094350000000000    0.000000000000000    1.0000
0.177866666666667    0.088800000000000    0.000000000000000    1.0000
0.166750000000000    0.083250000000000    0.000000000000000    1.0000
0.155633333333333    0.077700000000000    0.000000000000000    1.0000
0.144516666666667    0.072150000000000    0.000000000000000    1.0000
0.133400000000000    0.066600000000000    0.000000000000000    1.0000
0.122283333333333    0.061050000000000    0.000000000000000    1.0000
0.111166666666667    0.055500000000000    0.000000000000000    1.0000
0.100050000000000    0.049950000000000    0.000000000000000    1.0000
0.088933333333333    0.044400000000000    0.000000000000000    1.0000
0.077816666666667    0.038850000000000    0.000000000000000    1.0000
0.066700000000000    0.033300000000000    0.000000000000000    1.0000
0.055583333333333    0.027750000000000    0.000000000000000    1.0000
0.044466666666667    0.022200000000000    0.000000000000000    1.0000
0.033350000000000    0.016650000000000    0.000000000000000    1.0000
0.022233333333333    0.011100000000000    0.000000000000000    1.0000
0.011116666666667    0.005550000000000    0.000000000000000    1.0000
0.000000000000000    0.000000000000000    0.000000000000000    1.0000
