X 0, G 14, Y 34 
49
Reciprocal lattice
    0.00000000000000    0.00000000000000    0.00000000000000             1
    0.33333333333333    0.00000000000000    0.00000000000000             2
    0.00000000000000    0.08333333333333    0.00000000000000             2
    0.33333333333333    0.08333333333333    0.00000000000000             4
    0.00000000000000    0.16666666666667    0.00000000000000             2
    0.33333333333333    0.16666666666667    0.00000000000000             4
    0.00000000000000    0.25000000000000    0.00000000000000             2
    0.33333333333333    0.25000000000000    0.00000000000000             4
    0.00000000000000    0.33333333333333    0.00000000000000             2
    0.33333333333333    0.33333333333333    0.00000000000000             4
    0.00000000000000    0.41666666666667    0.00000000000000             2
    0.33333333333333    0.41666666666667    0.00000000000000             4
    0.00000000000000    0.50000000000000    0.00000000000000             1
    0.33333333333333    0.50000000000000    0.00000000000000             2
0.500000000000000    0.000000000000000    0.000000000000000    0.0000
0.464285714285714    0.000000000000000    0.000000000000000    0.0000
0.428571428571429    0.000000000000000    0.000000000000000    0.0000
0.392857142857143    0.000000000000000    0.000000000000000    0.0000
0.357142857142857    0.000000000000000    0.000000000000000    0.0000
0.321428571428571    0.000000000000000    0.000000000000000    0.0000
0.285714285714286    0.000000000000000    0.000000000000000    0.0000
0.250000000000000    0.000000000000000    0.000000000000000    0.0000
0.214285714285714    0.000000000000000    0.000000000000000    0.0000
0.178571428571429    0.000000000000000    0.000000000000000    0.0000
0.142857142857143    0.000000000000000    0.000000000000000    0.0000
0.107142857142857    0.000000000000000    0.000000000000000    0.0000
0.071428571428571    0.000000000000000    0.000000000000000    0.0000
0.035714285714286    0.000000000000000    0.000000000000000    0.0000
0.000000000000000    0.000000000000000    0.000000000000000    0.0000
0.000000000000000    0.025000000000000    0.000000000000000    0.0000
0.000000000000000    0.050000000000000    0.000000000000000    0.0000
0.000000000000000    0.075000000000000    0.000000000000000    0.0000
0.000000000000000    0.100000000000000    0.000000000000000    0.0000
0.000000000000000    0.125000000000000    0.000000000000000    0.0000
0.000000000000000    0.150000000000000    0.000000000000000    0.0000
0.000000000000000    0.175000000000000    0.000000000000000    0.0000
0.000000000000000    0.200000000000000    0.000000000000000    0.0000
0.000000000000000    0.225000000000000    0.000000000000000    0.0000
0.000000000000000    0.250000000000000    0.000000000000000    0.0000
0.000000000000000    0.275000000000000    0.000000000000000    0.0000
0.000000000000000    0.300000000000000    0.000000000000000    0.0000
0.000000000000000    0.325000000000000    0.000000000000000    0.0000
0.000000000000000    0.350000000000000    0.000000000000000    0.0000
0.000000000000000    0.375000000000000    0.000000000000000    0.0000
0.000000000000000    0.400000000000000    0.000000000000000    0.0000
0.000000000000000    0.425000000000000    0.000000000000000    0.0000
0.000000000000000    0.450000000000000    0.000000000000000    0.0000
0.000000000000000    0.475000000000000    0.000000000000000    0.0000
0.000000000000000    0.500000000000000    0.000000000000000    0.0000
