MoSe2 full optimized                    
1.0
       22.7341632843         0.0000000000         0.0000000000
        0.0000000000         3.2986721992         0.0000000000
        0.0000000000         0.0000000000        32.7628255587
    P   Mo   Se
   20    8   16
Selective Dynamics
Cartesian
     0.033306493         1.649336100         0.140880155   F F F
     4.581534613         1.649336100         0.476620495   F F F
     9.091502150         1.649336100         0.536258628   F F F
    13.625885046         1.649336100         0.462768373   F F F
    18.123735370         1.649336100         0.181833678   F F F
     0.652855620         1.649336100         2.321301839   F F F
     5.287999182         1.649336100         2.629731154   F F F
     9.880920951         1.649336100         2.658693377   F F F
    14.498692134         1.649336100         2.554271881   F F F
    19.003757305         1.649336100         2.265284075   F F F
     2.151147458         0.000000000         2.457765638   F F F
     6.802023802         0.000000000         2.656819405   F F F
    11.389519864         0.000000000         2.642128610   F F F
    16.008868883         0.000000000         2.456779466   F F F
    20.496738814         0.000000000         2.215497505   F F F
     3.091177194         0.000000000         0.398091271   F F F
     7.597604237         0.000000000         0.534882625   F F F
    12.133923186         0.000000000         0.503223898   F F F
    16.629497442         0.000000000         0.274224848   F F F
    21.264989652         0.000000000         0.087804370   F F F
     1.909653290         0.000000000         7.450692405   F F F
     4.744528713         1.649336100         7.486338631   F F F
     7.584499956         0.000000000         7.512450230   F F F
    10.423073690         1.649336100         7.497346658   F F F
    13.258994656         0.000000000         7.475559572   F F F
    16.106531087         1.649336100         7.445778142   F F F
    18.948800432         0.000000000         7.413178799   F F F
    21.795727230         1.649336100         7.422155897   F F F
     3.782771136         0.000000000         9.153048541   F F F
     6.628690586         1.649336100         9.184337545   F F F
     9.486287547         0.000000000         9.182305639   F F F
    12.330686690         1.649336100         9.162910265   F F F
    15.176443160         0.000000000         9.133751784   F F F
    18.018147309         1.649336100         9.099579447   F F F
    20.844306972         0.000000000         9.094829221   F F F
     0.945149017         1.649336100         9.117238767   F F F
     3.825113281         0.000000000         5.786996179   F F F
     6.652445511         1.649336100         5.831324139   F F F
     9.471359817         0.000000000         5.823166248   F F F
    12.304416357         1.649336100         5.800134241   F F F
    15.139361851         0.000000000         5.784964762   F F F
    17.986660031         1.649336100         5.738277799   F F F
    20.853187275         0.000000000         5.739555430   F F F
     0.978536721         1.649336100         5.765995101   F F F
