Grafeno_2atomos                         
   1.00000000000000     
    24.6817207335999989    0.0000000000000000    0.0000000000000000
    12.3408703286999994   21.3749914128999983    0.0000000000000000
     0.0000000000000000    0.0000000000000000   21.3750000000000000
   C    H    N    Cu
   206    14     4     1
Selective dynamics
Direct
  0.0333329997922434  0.0333329997770235  0.5000000000000000   F   F   F
  0.0333330072241722  0.1333329975646222  0.5000000000000000   F   F   F
  0.0333329923558168  0.2333330064867312  0.5000000000000000   F   F   F
  0.0333330109614351  0.3333329856544438  0.5000000000000000   F   F   F
  0.0333329923180230  0.4333330095005294  0.5000000000000000   F   F   F
  0.0333329960706337  0.5333330035454438  0.5000000000000000   F   F   F
  0.0333329998153431  0.6333330273447473  0.5000000000000000   F   F   F
  0.0333330035182229  0.7333329915884761  0.5000000000000000   F   F   F
  0.0333329886427833  0.8333330154345688  0.5000000000000000   F   F   F
  0.0333330370566927  0.9333329200759337  0.5000000000000000   F   F   F
  0.1333329975897968  0.0333329997770235  0.5000000000000000   F   F   F
  0.1333330124766405  0.1333329975646222  0.5000000000000000   F   F   F
  0.1333329975677700  0.2333330064867312  0.5000000000000000   F   F   F
  0.1333330124459309  0.3333329856544438  0.5000000000000000   F   F   F
  0.1333330124397918  0.4333330095005294  0.5000000000000000   F   F   F
  0.1333330124649521  0.5333330035454438  0.5000000000000000   F   F   F
  0.1333329975723885  0.6333330273447473  0.5000000000000000   F   F   F
  0.1333329975478179  0.7333329915884761  0.5000000000000000   F   F   F
  0.1333329826723713  0.8333330154345688  0.5000000000000000   F   F   F
  0.1333329975797000  0.9333329200759337  0.5000000000000000   F   F   F
  0.2333330065292074  0.0333329997770235  0.5000000000000000   F   F   F
  0.2333330065062356  0.1333329975646222  0.5000000000000000   F   F   F
  0.2333330065071806  0.2333330064867312  0.5000000000000000   F   F   F
  0.2333330362951642  0.3333329856544438  0.5000000000000000   F   F   F
  0.2333330065099020  0.4333330095005294  0.5000000000000000   F   F   F
  0.2333330214043627  0.5333330035454438  0.5000000000000000   F   F   F
  0.2333330065117991  0.6333330273447473  0.5000000000000000   F   F   F
  0.2333330065277366  0.7333329915884761  0.5000000000000000   F   F   F
  0.2333330213909051  0.8333330154345688  0.5000000000000000   F   F   F
  0.2333329916092879  0.9333329200759337  0.5000000000000000   F   F   F
  0.3333329856489797  0.0333329997770235  0.5000000000000000   F   F   F
  0.3333329856260008  0.1333329975646222  0.5000000000000000   F   F   F
  0.3333329856674681  0.2333330064867312  0.5000000000000000   F   F   F
  0.3333329856358063  0.3333329856544438  0.5000000000000000   F   F   F
  0.3333329856296672  0.4333330095005294  0.5000000000000000   F   F   F
  0.3333329856143123  0.5333330035454438  0.5000000000000000   F   F   F
  0.3333329558524412  0.6333330273447473  0.5000000000000000   F   F   F
  0.3333329558278706  0.7333329915884761  0.5000000000000000   F   F   F
  0.3333329558217315  0.8333330154345688  0.5000000000000000   F   F   F
  0.3333329856388829  0.9333329200759337  0.5000000000000000   F   F   F
  0.4333330094982060  0.0333329997770235  0.5000000000000000   F   F   F
  0.4333330392948724  0.1333329975646222  0.5000000000000000   F   F   F
  0.4333330094761791  0.2333330064867312  0.5000000000000000   F   F   F
  0.4333330392641628  0.3333329856544438  0.5000000000000000   F   F   F
  0.4333329796592622  0.4333330095005294  0.5000000000000000   F   F   F
  0.4333329796844225  0.5333330035454438  0.5000000000000000   F   F   F
  0.4333330393004360  0.6333330273447473  0.5000000000000000   F   F   F
  0.4333329796770968  0.7333329915884761  0.5000000000000000   F   F   F
  0.4333330392697192  0.8333330154345688  0.5000000000000000   F   F   F
  0.4333330094881092  0.9333329200759337  0.5000000000000000   F   F   F
  0.5333330035278010  0.0333329997770235  0.5000000000000000   F   F   F
  0.5333330035048220  0.1333329975646222  0.5000000000000000   F   F   F
  0.5333330035462893  0.2333330064867312  0.5000000000000000   F   F   F
  0.5333330035146275  0.3333329856544438  0.5000000000000000   F   F   F
  0.5333329439097270  0.4333330095005294  0.5000000000000000   F   F   F
  0.5333330034931336  0.5333330035454438  0.5000000000000000   F   F   F
  0.5333330631496622  0.6333330273447473  0.5000000000000000   F   F   F
  0.5333329439275687  0.7333329915884761  0.5000000000000000   F   F   F
  0.5333330035201911  0.8333330154345688  0.5000000000000000   F   F   F
  0.5333330035176971  0.9333329200759337  0.5000000000000000   F   F   F
  0.6333330869757887  0.0333329997770235  0.5000000000000000   F   F   F
  0.6333330869528098  0.1333329975646222  0.5000000000000000   F   F   F
  0.6333330273550004  0.2333330064867312  0.5000000000000000   F   F   F
  0.6333330869626153  0.3333329856544438  0.5000000000000000   F   F   F
  0.6333330273577147  0.4333330095005294  0.5000000000000000   F   F   F
  0.6333330273423599  0.5333330035454438  0.5000000000000000   F   F   F
  0.6333330273596118  0.6333330273447473  0.5000000000000000   F   F   F
  0.6333330273755564  0.7333329915884761  0.5000000000000000   F   F   F
  0.6333330273694173  0.8333330154345688  0.5000000000000000   F   F   F
  0.6333330869656919  0.9333329200759337  0.5000000000000000   F   F   F
  0.7333329916274920  0.0333329997770235  0.5000000000000000   F   F   F
  0.7333329916045201  0.1333329975646222  0.5000000000000000   F   F   F
  0.7333329916054652  0.2333330064867312  0.5000000000000000   F   F   F
  0.7333329915738034  0.3333329856544438  0.5000000000000000   F   F   F
  0.7333329916081794  0.4333330095005294  0.5000000000000000   F   F   F
  0.7333329915928246  0.5333330035454438  0.5000000000000000   F   F   F
  0.7333329320113151  0.6333330273447473  0.5000000000000000   F   F   F
  0.7333329916260212  0.7333329915884761  0.5000000000000000   F   F   F
  0.7333329319806055  0.8333330154345688  0.5000000000000000   F   F   F
  0.7333329916173952  0.9333329200759337  0.5000000000000000   F   F   F
  0.8333329558374416  0.0333329997770235  0.5000000000000000   F   F   F
  0.8333330154537464  0.1333329975646222  0.5000000000000000   F   F   F
  0.8333329558559299  0.2333330064867312  0.5000000000000000   F   F   F
  0.8333330154230367  0.3333329856544438  0.5000000000000000   F   F   F
  0.8333330750561743  0.4333330095005294  0.5000000000000000   F   F   F
  0.8333330750408194  0.5333330035454438  0.5000000000000000   F   F   F
  0.8333330154593099  0.6333330273447473  0.5000000000000000   F   F   F
  0.8333330154347394  0.7333329915884761  0.5000000000000000   F   F   F
  0.8333330154286003  0.8333330154345688  0.5000000000000000   F   F   F
  0.8333330750653829  0.9333329200759337  0.5000000000000000   F   F   F
  0.9333329796866749  0.0333329997770235  0.5000000000000000   F   F   F
  0.9333329796636960  0.1333329975646222  0.5000000000000000   F   F   F
  0.9333329797051633  0.2333330064867312  0.5000000000000000   F   F   F
  0.9333329796735015  0.3333329856544438  0.5000000000000000   F   F   F
  0.9333329796673624  0.4333330095005294  0.5000000000000000   F   F   F
  0.9333329796520076  0.5333330035454438  0.5000000000000000   F   F   F
  0.9333329797097747  0.6333330273447473  0.5000000000000000   F   F   F
  0.9333329796852041  0.7333329915884761  0.5000000000000000   F   F   F
  0.9333330392778265  0.8333330154345688  0.5000000000000000   F   F   F
  0.9333329796765710  0.9333329200759337  0.5000000000000000   F   F   F
  0.0666669979652212  0.0666669979638002  0.5000000000000000   F   F   F
  0.0666669905436237  0.1666669994473082  0.5000000000000000   F   F   F
  0.0666670054310003  0.2666670084161993  0.5000000000000000   F   F   F
  0.0666669905058228  0.3666670024611065  0.5000000000000000   F   F   F
  0.0666669830589512  0.4666669964592387  0.5000000000000000   F   F   F
  0.0666669905077200  0.5666670203053243  0.5000000000000000   F   F   F
  0.0666670128883950  0.6666669845490532  0.5000000000000000   F   F   F
  0.0666669979724333  0.7666670083951459  0.5000000000000000   F   F   F
  0.0666670054027705  0.8666669726388747  0.5000000000000000   F   F   F
  0.0666670054371465  0.9666669964849675  0.5000000000000000   F   F   F
  0.1666669994497170  0.0666669979638002  0.5000000000000000   F   F   F
  0.1666669994830343  0.1666669994473082  0.5000000000000000   F   F   F
  0.1666669994605883  0.2666670084161993  0.5000000000000000   F   F   F
  0.1666670143550562  0.3666670024611065  0.5000000000000000   F   F   F
  0.1666669994532697  0.4666669964592387  0.5000000000000000   F   F   F
  0.1666669845778301  0.5666670203053243  0.5000000000000000   F   F   F
  0.1666670143728908  0.6666669845490532  0.5000000000000000   F   F   F
  0.1666669994569361  0.7666670083951459  0.5000000000000000   F   F   F
  0.1666669994728807  0.8666669726388747  0.5000000000000000   F   F   F
  0.1666669994667416  0.9666669964849675  0.5000000000000000   F   F   F
  0.2666670083891276  0.0666669979638002  0.5000000000000000   F   F   F
  0.2666670084224450  0.1666669994473082  0.5000000000000000   F   F   F
  0.2666670083999989  0.2666670084161993  0.5000000000000000   F   F   F
  0.2666670083846441  0.3666670024611065  0.5000000000000000   F   F   F
  0.2666670083926803  0.4666669964592387  0.5000000000000000   F   F   F
  0.2666669786074181  0.5666670203053243  0.5000000000000000   F   F   F
  0.2666670084024858  0.6666669845490532  0.5000000000000000   F   F   F
  0.2666670083963467  0.7666670083951459  0.5000000000000000   F   F   F
  0.2666670084122842  0.8666669726388747  0.5000000000000000   F   F   F
  0.2666670084061451  0.9666669964849675  0.5000000000000000   F   F   F
  0.3666670024592378  0.0666669979638002  0.5000000000000000   F   F   F
  0.3666670024520329  0.1666669994473082  0.5000000000000000   F   F   F
  0.3666670024295868  0.2666670084161993  0.5000000000000000   F   F   F
  0.3666670024142320  0.3666670024611065  0.5000000000000000   F   F   F
  0.3666670024627834  0.4666669964592387  0.5000000000000000   F   F   F
  0.3666669726370060  0.5666670203053243  0.5000000000000000   F   F   F
  0.3666670024320737  0.6666669845490532  0.5000000000000000   F   F   F
  0.3666670024259346  0.7666670083951459  0.5000000000000000   F   F   F
  0.3666670024418792  0.8666669726388747  0.5000000000000000   F   F   F
  0.3666670024357401  0.9666669964849675  0.5000000000000000   F   F   F
  0.4666670262679489  0.0666669979638002  0.5000000000000000   F   F   F
  0.4666670263012591  0.1666669994473082  0.5000000000000000   F   F   F
  0.4666669964591748  0.2666670084161993  0.5000000000000000   F   F   F
  0.4666669964843351  0.3666670024611065  0.5000000000000000   F   F   F
  0.4666669964923713  0.4666669964592387  0.5000000000000000   F   F   F
  0.4666669964862322  0.5666670203053243  0.5000000000000000   F   F   F
  0.4666670262813000  0.6666669845490532  0.5000000000000000   F   F   F
  0.4666669964960377  0.7666670083951459  0.5000000000000000   F   F   F
  0.4666669964714671  0.8666669726388747  0.5000000000000000   F   F   F
  0.4666669964653281  0.9666669964849675  0.5000000000000000   F   F   F
  0.5666670203380519  0.0666669979638002  0.5000000000000000   F   F   F
  0.5666670203308470  0.1666669994473082  0.5000000000000000   F   F   F
  0.5666670203084081  0.2666670084161993  0.5000000000000000   F   F   F
  0.5666670202930533  0.3666670024611065  0.5000000000000000   F   F   F
  0.5666670203416047  0.4666669964592387  0.5000000000000000   F   F   F
  0.5666669607367041  0.5666670203053243  0.5000000000000000   F   F   F
  0.5666670203108879  0.6666669845490532  0.5000000000000000   F   F   F
  0.5666670203047488  0.7666670083951459  0.5000000000000000   F   F   F
  0.5666670203206934  0.8666669726388747  0.5000000000000000   F   F   F
  0.5666670203145543  0.9666669964849675  0.5000000000000000   F   F   F
  0.6666670441467630  0.0666669979638002  0.5000000000000000   F   F   F
  0.6666669845813189  0.1666669994473082  0.5000000000000000   F   F   F
  0.6666669845588729  0.2666670084161993  0.5000000000000000   F   F   F
  0.6666669845435180  0.3666670024611065  0.5000000000000000   F   F   F
  0.6666669845515543  0.4666669964592387  0.5000000000000000   F   F   F
  0.6666669845859303  0.5666670203053243  0.5000000000000000   F   F   F
  0.6666669845613598  0.6666669845490532  0.5000000000000000   F   F   F
  0.6666669845552207  0.7666670083951459  0.5000000000000000   F   F   F
  0.6666669845711652  0.8666669726388747  0.5000000000000000   F   F   F
  0.6666669845650262  0.9666669964849675  0.5000000000000000   F   F   F
  0.7666670083972349  0.0666669979638002  0.5000000000000000   F   F   F
  0.7666670083900300  0.1666669994473082  0.5000000000000000   F   F   F
  0.7666670084080991  0.2666670084161993  0.5000000000000000   F   F   F
  0.7666670083927443  0.3666670024611065  0.5000000000000000   F   F   F
  0.7666670084007805  0.4666669964592387  0.5000000000000000   F   F   F
  0.7666670083946414  0.5666670203053243  0.5000000000000000   F   F   F
  0.7666670084105860  0.6666669845490532  0.5000000000000000   F   F   F
  0.7666670084044469  0.7666670083951459  0.5000000000000000   F   F   F
  0.7666670084203915  0.8666669726388747  0.5000000000000000   F   F   F
  0.7666670084142524  0.9666669964849675  0.5000000000000000   F   F   F
  0.8666669130489382  0.0666669979638002  0.5000000000000000   F   F   F
  0.8666669130417333  0.1666669994473082  0.5000000000000000   F   F   F
  0.8666670322168173  0.2666670084161993  0.5000000000000000   F   F   F
  0.8666670322419776  0.3666670024611065  0.5000000000000000   F   F   F
  0.8666670322500138  0.4666669964592387  0.5000000000000000   F   F   F
  0.8666669726451062  0.5666670203053243  0.5000000000000000   F   F   F
  0.8666669130217741  0.6666669845490532  0.5000000000000000   F   F   F
  0.8666669726549117  0.7666670083951459  0.5000000000000000   F   F   F
  0.8666669726303411  0.8666669726388747  0.5000000000000000   F   F   F
  0.8666669130254405  0.9666669964849675  0.5000000000000000   F   F   F
  0.9666669964969259  0.0666669979638002  0.5000000000000000   F   F   F
  0.9666669964897210  0.1666669994473082  0.5000000000000000   F   F   F
  0.9666669964672820  0.2666670084161993  0.5000000000000000   F   F   F
  0.9666669964519272  0.3666670024611065  0.5000000000000000   F   F   F
  0.9666669965004786  0.4666669964592387  0.5000000000000000   F   F   F
  0.9666669964943395  0.5666670203053243  0.5000000000000000   F   F   F
  0.9666669368710075  0.6666669845490532  0.5000000000000000   F   F   F
  0.9666669964636299  0.7666670083951459  0.5000000000000000   F   F   F
  0.9666669368808058  0.8666669726388747  0.5000000000000000   F   F   F
  0.9666669964734282  0.9666669964849675  0.5000000000000000   F   F   F
  0.5979406860594139  0.3768856094855096  0.6670140371196539   T   T   T
  0.5392191314415401  0.3738696225566264  0.6823691649035807   T   T   T
  0.6267919176938214  0.4602767758833074  0.6663067415029352   T   T   T
  0.4254646707893588  0.4483701252837152  0.6804901958486127   T   T   T
  0.5923002701032822  0.5304286280676188  0.6788676160692912   T   T   T
  0.3824211127287976  0.5152712456066739  0.6584988183055324   T   T   T
  0.6082365558863203  0.3684223281594115  0.6161581270392223   T   T   T
  0.6399118585421804  0.3407239265856273  0.6921477650297235   T   T   T
  0.5404752106634020  0.3317038473907857  0.6622390115633173   T   T   T
  0.5349965958479957  0.3715302167917878  0.7340717209347909   T   T   T
  0.6388371040817730  0.4513444027611582  0.6157797936647167   T   T   T
  0.6713993933389569  0.4349362363541239  0.6927355591555424   T   T   T
  0.4097162330715559  0.4160090610355510  0.6631039203768211   T   T   T
  0.4253715356565017  0.4463424320381925  0.7326130858146218   T   T   T
  0.6171246079996844  0.5532813772700564  0.6581995685235326   T   T   T
  0.5904547464245743  0.5380550939638298  0.7302714472772346   T   T   T
  0.3364544378240528  0.5371718790679506  0.6826957689732865   T   T   T
  0.3725496635896683  0.5143371562331879  0.6080548913795907   T   T   T
  0.5007324290185874  0.6002276553792485  0.6648370642091324   T   T   T
  0.3934332911466260  0.5932264597616028  0.6508702178664402   T   T   T
  0.5835739710544701  0.4395163420279700  0.6846806413881680   T   T   T
  0.4872335256675772  0.4307664446172813  0.6566362341472702   T   T   T
  0.5301101991000727  0.5548224239894421  0.6512491309915125   T   T   T
  0.4153440311845248  0.5494322434880268  0.6704356296532290   T   T   T
  0.5015874410734635  0.4981448251366119  0.6651713608352108   T   T   T
