MoS2 full optimized
3.1546
0.86602540 -0.50000000 0.00000000
0.86602540 0.50000000 0.00000000
0.00000000 0.00000000 10.0000000
Mo S
1 2
Selective dynamics
Direct
0.3333331793732626 0.3333331793732626 0.5 F F F
0.6666663587465251 0.6666663587465251 0.550011 F F F
0.6666663587465251 0.6666663587465251 0.449989 F F F
