WS2 full optimized
3.195
0.86602540 -0.50000000 0.00000000
0.86602540 0.50000000 0.00000000
0.00000000 0.00000000 10.000
W S
1 2
Selective dynamics
Direct
0.333333 0.333333 0.5 F F F
0.666667 0.666667 0.549206 F F F
0.666667 0.666667 0.450794 F F F
